============================[ Problem Statistics ]=============================|                                                                             ||  Number of variables:          4242                                         ||  Number of clauses:           10077                                         ||  Parse time:                   0.47 s                                       ||                                                                             |============================[ Search Statistics ]==============================| Conflicts |          ORIGINAL         |          LEARNT          | Progress ||           |    Vars  Clauses Literals |    Limit  Clauses Lit/Cl |          |===============================================================================|       100 |    1591     6282   742063 |     2303      100     53 | 62.501 % ||       250 |    1591     6282   742063 |     2533      250     75 | 62.495 % |===============================================================================restarts              : 3conflicts             : 263            (373 /sec)decisions             : 528            (0.00 % random) (749 /sec)propagations          : 11778          (16706 /sec)conflict literals     : 20122          (94.85 % deleted)CPU time              : 0.705 sSATISFIABLE